AoPS/c6h2031298p14319928.smt2
(set-info :smt-lib-version 2.6)
(set-logic AUFNIRA)
(set-info :source |
Generated by: Mirek Olšák, Mikoláš Janota, Chad E. Brown
Generated on: 2024-04-14
Application: Mathematics challenges involving function synthesis
From a collection by: Vít Musil
Source url: https://prase.cz/library/FunkcionalniRovniceVM/FunkcionalniRovniceVM.pdf
Original source: c6h2031298p14319928
|)
(set-info :license "https://creativecommons.org/licenses/by-nc/4.0/")
(set-info :category "crafted")
(set-info :status sat)

; Header
(declare-fun f (Real) Real)

; Equations
(assert (forall ((x Real) (y Real) (z Real)) (= (f (+ (+ (* (f x) (f y)) (* (f y) (f z))) (* (f z) (f x)))) (+ (+ (f x) (f y)) (f z)))))

; Find all possible f

(check-sat)
(exit)
(get-model)
